(set-logic QF_UF)
(declare-fun G1gat () Bool)
(declare-fun G4gat () Bool)
(declare-fun G8gat () Bool)
(declare-fun G11gat () Bool)
(declare-fun G14gat () Bool)
(declare-fun G17gat () Bool)
(declare-fun G21gat () Bool)
(declare-fun G24gat () Bool)
(declare-fun G27gat () Bool)
(declare-fun G30gat () Bool)
(declare-fun G34gat () Bool)
(declare-fun G37gat () Bool)
(declare-fun G40gat () Bool)
(declare-fun G43gat () Bool)
(declare-fun G47gat () Bool)
(declare-fun G50gat () Bool)
(declare-fun G53gat () Bool)
(declare-fun G56gat () Bool)
(declare-fun G60gat () Bool)
(declare-fun G63gat () Bool)
(declare-fun G66gat () Bool)
(declare-fun G69gat () Bool)
(declare-fun G73gat () Bool)
(declare-fun G76gat () Bool)
(declare-fun G79gat () Bool)
(declare-fun G82gat () Bool)
(declare-fun G86gat () Bool)
(declare-fun G89gat () Bool)
(declare-fun G92gat () Bool)
(declare-fun G95gat () Bool)
(declare-fun G99gat () Bool)
(declare-fun G102gat () Bool)
(declare-fun G105gat () Bool)
(declare-fun G108gat () Bool)
(declare-fun G112gat () Bool)
(declare-fun G115gat () Bool)
(assert (let ((.def_0 (not G82gat))) (let ((.def_1 (or G86gat .def_0))) (let ((.def_2 (not .def_1))) (let ((.def_3 (not G76gat))) (let ((.def_4 (and .def_3 G82gat))) (let ((.def_5 (not .def_4))) (let ((.def_6 (not G11gat))) (let ((.def_7 (and .def_6 G17gat))) (let ((.def_8 (not .def_7))) (let ((.def_9 (not G102gat))) (let ((.def_10 (and G108gat .def_9))) (let ((.def_11 (not .def_10))) (let ((.def_12 (not G37gat))) (let ((.def_13 (and .def_12 G43gat))) (let ((.def_14 (not .def_13))) (let ((.def_15 (not G1gat))) (let ((.def_16 (and .def_15 G4gat))) (let ((.def_17 (not .def_16))) (let ((.def_18 (not G89gat))) (let ((.def_19 (and .def_18 G95gat))) (let ((.def_20 (not .def_19))) (let ((.def_21 (not G24gat))) (let ((.def_22 (and G30gat .def_21))) (let ((.def_23 (not .def_22))) (let ((.def_24 (not G63gat))) (let ((.def_25 (and .def_24 G69gat))) (let ((.def_26 (not .def_25))) (let ((.def_27 (not G50gat))) (let ((.def_28 (and .def_27 G56gat))) (let ((.def_29 (not .def_28))) (let ((.def_30 (and .def_29 .def_26 .def_23 .def_20 .def_17 .def_14 .def_11 .def_8 .def_5))) (let ((.def_31 (not .def_30))) (let ((.def_32 (= .def_31 .def_5))) (let ((.def_33 (not .def_32))) (let ((.def_34 (and .def_33 .def_2))) (let ((.def_35 (not .def_34))) (let ((.def_36 (= .def_31 .def_29))) (let ((.def_37 (not .def_36))) (let ((.def_38 (not G56gat))) (let ((.def_39 (or .def_38 G60gat))) (let ((.def_40 (not .def_39))) (let ((.def_41 (and .def_40 .def_37))) (let ((.def_42 (not .def_41))) (let ((.def_43 (not G4gat))) (let ((.def_44 (or .def_43 G8gat))) (let ((.def_45 (not .def_44))) (let ((.def_46 (= .def_31 .def_17))) (let ((.def_47 (not .def_46))) (let ((.def_48 (and .def_47 .def_45))) (let ((.def_49 (not .def_48))) (let ((.def_50 (= .def_31 .def_11))) (let ((.def_51 (not .def_50))) (let ((.def_52 (not G108gat))) (let ((.def_53 (or .def_52 G112gat))) (let ((.def_54 (not .def_53))) (let ((.def_55 (and .def_54 .def_51))) (let ((.def_56 (not .def_55))) (let ((.def_57 (not G17gat))) (let ((.def_58 (or G21gat .def_57))) (let ((.def_59 (not .def_58))) (let ((.def_60 (= .def_8 .def_31))) (let ((.def_61 (not .def_60))) (let ((.def_62 (and .def_61 .def_59))) (let ((.def_63 (not .def_62))) (let ((.def_64 (not G95gat))) (let ((.def_65 (or .def_64 G99gat))) (let ((.def_66 (not .def_65))) (let ((.def_67 (= .def_31 .def_20))) (let ((.def_68 (not .def_67))) (let ((.def_69 (and .def_68 .def_66))) (let ((.def_70 (not .def_69))) (let ((.def_71 (not G30gat))) (let ((.def_72 (or .def_71 G34gat))) (let ((.def_73 (not .def_72))) (let ((.def_74 (= .def_31 .def_23))) (let ((.def_75 (not .def_74))) (let ((.def_76 (and .def_75 .def_73))) (let ((.def_77 (not .def_76))) (let ((.def_78 (= .def_26 .def_31))) (let ((.def_79 (not .def_78))) (let ((.def_80 (not G69gat))) (let ((.def_81 (or .def_80 G73gat))) (let ((.def_82 (not .def_81))) (let ((.def_83 (and .def_82 .def_79))) (let ((.def_84 (not .def_83))) (let ((.def_85 (= .def_31 .def_14))) (let ((.def_86 (not .def_85))) (let ((.def_87 (not G43gat))) (let ((.def_88 (or G47gat .def_87))) (let ((.def_89 (not .def_88))) (let ((.def_90 (and .def_89 .def_86))) (let ((.def_91 (not .def_90))) (let ((.def_92 (and .def_91 .def_84 .def_77 .def_70 .def_63 .def_56 .def_49 .def_42 .def_35))) (let ((.def_93 (not .def_92))) (let ((.def_94 (= .def_91 .def_93))) (let ((.def_95 (not .def_94))) (let ((.def_96 (or G53gat .def_87))) (let ((.def_97 (not .def_96))) (let ((.def_98 (and .def_86 .def_97))) (let ((.def_99 (and .def_98 .def_95))) (let ((.def_100 (not .def_99))) (let ((.def_101 (= .def_49 .def_93))) (let ((.def_102 (not .def_101))) (let ((.def_103 (or .def_43 G14gat))) (let ((.def_104 (not .def_103))) (let ((.def_105 (and .def_47 .def_104))) (let ((.def_106 (and .def_105 .def_102))) (let ((.def_107 (not .def_106))) (let ((.def_108 (or .def_38 G66gat))) (let ((.def_109 (not .def_108))) (let ((.def_110 (and .def_109 .def_37))) (let ((.def_111 (= .def_42 .def_93))) (let ((.def_112 (not .def_111))) (let ((.def_113 (and .def_112 .def_110))) (let ((.def_114 (not .def_113))) (let ((.def_115 (= .def_93 .def_56))) (let ((.def_116 (not .def_115))) (let ((.def_117 (or G115gat .def_52))) (let ((.def_118 (not .def_117))) (let ((.def_119 (and .def_118 .def_51))) (let ((.def_120 (and .def_119 .def_116))) (let ((.def_121 (not .def_120))) (let ((.def_122 (or G79gat .def_80))) (let ((.def_123 (not .def_122))) (let ((.def_124 (and .def_79 .def_123))) (let ((.def_125 (= .def_84 .def_93))) (let ((.def_126 (not .def_125))) (let ((.def_127 (and .def_126 .def_124))) (let ((.def_128 (not .def_127))) (let ((.def_129 (= .def_63 .def_93))) (let ((.def_130 (not .def_129))) (let ((.def_131 (or G27gat .def_57))) (let ((.def_132 (not .def_131))) (let ((.def_133 (and .def_132 .def_61))) (let ((.def_134 (and .def_133 .def_130))) (let ((.def_135 (not .def_134))) (let ((.def_136 (or .def_0 G92gat))) (let ((.def_137 (not .def_136))) (let ((.def_138 (and .def_33 .def_137))) (let ((.def_139 (= .def_35 .def_93))) (let ((.def_140 (not .def_139))) (let ((.def_141 (and .def_140 .def_138))) (let ((.def_142 (not .def_141))) (let ((.def_143 (= .def_93 .def_77))) (let ((.def_144 (not .def_143))) (let ((.def_145 (or .def_71 G40gat))) (let ((.def_146 (not .def_145))) (let ((.def_147 (and .def_146 .def_75))) (let ((.def_148 (and .def_147 .def_144))) (let ((.def_149 (not .def_148))) (let ((.def_150 (or G105gat .def_64))) (let ((.def_151 (not .def_150))) (let ((.def_152 (and .def_68 .def_151))) (let ((.def_153 (= .def_70 .def_93))) (let ((.def_154 (not .def_153))) (let ((.def_155 (and .def_154 .def_152))) (let ((.def_156 (not .def_155))) (let ((.def_157 (and .def_156 .def_149 .def_142 .def_135 .def_128 .def_121 .def_114 .def_107 .def_100))) (let ((.def_158 (not .def_157))) (let ((.def_159 (and G27gat .def_158))) (let ((.def_160 (not .def_159))) (let ((.def_161 (and .def_31 G11gat))) (let ((.def_162 (not .def_161))) (let ((.def_163 (and G21gat .def_93))) (let ((.def_164 (not .def_163))) (let ((.def_165 (and .def_164 .def_162 .def_160 G17gat))) (let ((.def_166 (not .def_165))) (let ((.def_167 (and G47gat .def_93))) (let ((.def_168 (not .def_167))) (let ((.def_169 (and .def_31 G37gat))) (let ((.def_170 (not .def_169))) (let ((.def_171 (and G53gat .def_158))) (let ((.def_172 (not .def_171))) (let ((.def_173 (and .def_172 .def_170 .def_168 G43gat))) (let ((.def_174 (not .def_173))) (let ((.def_175 (and G105gat .def_158))) (let ((.def_176 (not .def_175))) (let ((.def_177 (and G99gat .def_93))) (let ((.def_178 (not .def_177))) (let ((.def_179 (and G89gat .def_31))) (let ((.def_180 (not .def_179))) (let ((.def_181 (and .def_180 .def_178 .def_176 G95gat))) (let ((.def_182 (and G86gat .def_93))) (let ((.def_183 (not .def_182))) (let ((.def_184 (and .def_31 G76gat))) (let ((.def_185 (not .def_184))) (let ((.def_186 (and .def_158 G92gat))) (let ((.def_187 (not .def_186))) (let ((.def_188 (and G82gat .def_187 .def_185 .def_183))) (let ((.def_189 (not .def_188))) (let ((.def_190 (and G24gat .def_31))) (let ((.def_191 (not .def_190))) (let ((.def_192 (and G40gat .def_158))) (let ((.def_193 (not .def_192))) (let ((.def_194 (and G34gat .def_93))) (let ((.def_195 (not .def_194))) (let ((.def_196 (and G30gat .def_195 .def_193 .def_191))) (let ((.def_197 (not .def_196))) (let ((.def_198 (and .def_197 .def_189 .def_181 .def_174))) (let ((.def_199 (not .def_198))) (let ((.def_200 (and .def_197 .def_173))) (let ((.def_201 (not .def_200))) (let ((.def_202 (and G50gat .def_31))) (let ((.def_203 (not .def_202))) (let ((.def_204 (and G66gat .def_158))) (let ((.def_205 (not .def_204))) (let ((.def_206 (and G60gat .def_93))) (let ((.def_207 (not .def_206))) (let ((.def_208 (and .def_207 .def_205 .def_203 G56gat))) (let ((.def_209 (not .def_208))) (let ((.def_210 (and G63gat .def_31))) (let ((.def_211 (not .def_210))) (let ((.def_212 (and G73gat .def_93))) (let ((.def_213 (not .def_212))) (let ((.def_214 (and G79gat .def_158))) (let ((.def_215 (not .def_214))) (let ((.def_216 (and .def_215 .def_213 .def_211 G69gat))) (let ((.def_217 (and .def_197 .def_216 .def_209 .def_174))) (let ((.def_218 (not .def_217))) (let ((.def_219 (and .def_218 .def_201 .def_199 .def_166))) (let ((.def_220 (not .def_219))) (let ((.def_221 (and .def_188 .def_209 .def_174))) (let ((.def_222 (not .def_221))) (let ((.def_223 (and .def_197 .def_218 .def_222 .def_166))) (let ((.def_224 (not .def_223))) (let ((.def_225 (and .def_197 .def_201 .def_166 .def_209))) (let ((.def_226 (and .def_158 .def_225 .def_224 .def_92 .def_220))) .def_226))))))))))))))))))))))))))))))))))))))))))))))))))))))))))))))))))))))))))))))))))))))))))))))))))))))))))))))))))))))))))))))))))))))))))))))))))))))))))))))))))))))))))))))))))))))))))))))))))))))))))))))))))))))))))))))))))))
(check-sat)
